
Gurobi 11.0.0 (linux64) logging started Thu Aug 15 11:34:03 2024

Set parameter LogFile to value "gurobi.log"
Set parameter InfUnbdInfo to value 1
Gurobi Optimizer version 11.0.0 build v11.0.0rc2 (linux64 - "Ubuntu 22.04.4 LTS")

CPU model: AMD EPYC 7V13 64-Core Processor, instruction set [SSE2|AVX|AVX2]
Thread count: 128 physical cores, 128 logical processors, using up to 32 threads

Optimize a model with 94 rows, 266 columns and 282 nonzeros
Model fingerprint: 0xac245090
Model has 166 quadratic constraints
Model has 2 general constraints
Variable types: 60 continuous, 206 integer (0 binary)
Coefficient statistics:
  Matrix range     [1e+00, 5e+05]
  QMatrix range    [1e+00, 2e+05]
  QLMatrix range   [1e+00, 6e+05]
  Objective range  [1e+00, 1e+00]
  Bounds range     [1e+00, 3e+10]
  RHS range        [1e+00, 2e+06]
  QRHS range       [1e+00, 2e+06]
Warning: Model contains large bounds
         Consider reformulating model or setting NumericFocus parameter
         to avoid numerical issues.
Using branch priorities (all 0).
Presolve added 19 rows and 53 columns
Presolve time: 0.00s
Presolved: 676 rows, 453 columns, 2940 nonzeros
Presolved model has 80 SOS constraint(s)
Presolved model has 106 bilinear constraint(s)
Warning: Model contains variables with very large bounds participating
         in product terms.
         Presolve was not able to compute smaller bounds for these variables.
         Consider bounding these variables or reformulating the model.


Solving non-convex MIQCP

Variable types: 145 continuous, 308 integer (98 binary)

Root relaxation: objective 4.032172e+04, 233 iterations, 0.00 seconds (0.00 work units)

    Nodes    |    Current Node    |     Objective Bounds      |     Work
 Expl Unexpl |  Obj  Depth IntInf | Incumbent    BestBd   Gap | It/Node Time

     0     0 40321.7172    0  117          - 40321.7172      -     -    0s
     0     0 40323.8545    0  169          - 40323.8545      -     -    0s
     0     0 40328.7122    0  168          - 40328.7122      -     -    0s
     0     0 40328.7122    0  174          - 40328.7122      -     -    0s
     0     0 40337.1356    0  217          - 40337.1356      -     -    0s
     0     0 40337.1356    0  223          - 40337.1356      -     -    0s
     0     0 40337.1356    0  226          - 40337.1356      -     -    0s
H    0     0                    396229.99999 40344.9134  89.8%     -    0s
     0     0 40344.9134    0  233 396230.000 40344.9134  89.8%     -    0s
     0     0 40376.4742    0  246 396230.000 40376.4742  89.8%     -    0s
H    0     0                    395679.99999 40378.3873  89.8%     -    0s
     0     0 40378.3873    0  222 395680.000 40378.3873  89.8%     -    0s
     0     0 40386.8347    0  240 395680.000 40386.8347  89.8%     -    0s
H    0     0                    81012.000000 40389.3040  50.1%     -    0s
H    0     0                    78052.000000 40389.3040  48.3%     -    0s
     0     0 40393.9277    0  243 78052.0000 40393.9277  48.2%     -    0s
     0     0 40409.1524    0  226 78052.0000 40409.1524  48.2%     -    0s
H    0     0                    77748.000000 40420.4908  48.0%     -    0s
     0     0 40420.4908    0  237 77748.0000 40420.4908  48.0%     -    0s
     0     0 40433.5378    0  225 77748.0000 40433.5378  48.0%     -    0s
H    0     0                    61547.898745 40434.3969  34.3%     -    0s
     0     0 40434.6267    0  246 61547.8987 40434.6267  34.3%     -    0s
     0     0 40444.6824    0  240 61547.8987 40444.6824  34.3%     -    0s
     0     0 40444.6992    0  249 61547.8987 40444.6992  34.3%     -    0s
     0     0 40445.1270    0  251 61547.8987 40445.1270  34.3%     -    0s
     0     0 40445.3465    0  251 61547.8987 40445.3465  34.3%     -    0s
     0     0 40447.0291    0  248 61547.8987 40447.0291  34.3%     -    0s
H    0     0                    60797.898745 40447.0291  33.5%     -    0s
     0     0 40449.1907    0  240 60797.8987 40449.1907  33.5%     -    0s
     0     0 40450.9640    0  247 60797.8987 40450.9640  33.5%     -    0s
     0     0 40453.1613    0  238 60797.8987 40453.1613  33.5%     -    0s
     0     0 40460.3132    0  250 60797.8987 40460.3132  33.5%     -    0s
     0     0 40462.2821    0  187 60797.8987 40462.2821  33.4%     -    0s
H    0     0                    60047.898745 40462.2821  32.6%     -    0s
     0     0 40462.2821    0  105 60047.8987 40462.2821  32.6%     -    0s
     0     0 40462.2821    0  182 60047.8987 40462.2821  32.6%     -    0s
     0     0 40462.2821    0  170 60047.8987 40462.2821  32.6%     -    0s
     0     0 40462.2821    0  180 60047.8987 40462.2821  32.6%     -    0s
     0     0 40462.2821    0  191 60047.8987 40462.2821  32.6%     -    0s
     0     0 40465.4065    0  152 60047.8987 40465.4065  32.6%     -    0s
     0     0 40469.2297    0  166 60047.8987 40469.2297  32.6%     -    0s
H    0     0                    59997.898745 40469.2297  32.5%     -    0s
     0     0 40472.5010    0  158 59997.8987 40472.5010  32.5%     -    0s
     0     0 40472.6572    0  158 59997.8987 40472.6572  32.5%     -    0s
     0     0 40477.4206    0  171 59997.8987 40477.4206  32.5%     -    0s
     0     0 40487.2269    0  171 59997.8987 40487.2269  32.5%     -    0s
     0     0 40492.2730    0  169 59997.8987 40492.2730  32.5%     -    0s
H    0     0                    59996.898745 40492.2730  32.5%     -    0s
     0     0 40510.6067    0  169 59996.8987 40510.6067  32.5%     -    0s
     0     0 40541.8801    0  198 59996.8987 40541.8801  32.4%     -    0s
     0     0 40556.0484    0  199 59996.8987 40556.0484  32.4%     -    0s
     0     0 40560.4139    0  178 59996.8987 40560.4139  32.4%     -    0s
H    0     0                    59297.898745 40579.1224  31.6%     -    0s
     0     0 40579.1224    0  173 59297.8987 40579.1224  31.6%     -    0s
     0     0 40600.4537    0  198 59297.8987 40600.4537  31.5%     -    0s
     0     0 40615.4918    0  203 59297.8987 40615.4918  31.5%     -    0s
     0     0 40628.0694    0  172 59297.8987 40628.0694  31.5%     -    0s
     0     0 40640.0518    0  172 59297.8987 40640.0518  31.5%     -    0s
     0     0 40654.1525    0  198 59297.8987 40654.1525  31.4%     -    0s
     0     0 40654.2774    0  201 59297.8987 40654.2774  31.4%     -    0s
     0     0 40657.8906    0  205 59297.8987 40657.8906  31.4%     -    0s
     0     0 40674.0445    0  181 59297.8987 40674.0445  31.4%     -    0s
H    0     2                    58997.898745 40674.0445  31.1%     -    0s
     0     2 40674.0445    0  181 58997.8987 40674.0445  31.1%     -    0s
H   31    64                    58947.898745 40674.0445  31.0%  29.5    0s
H   95   124                    51036.899552 40674.0445  20.3%  22.7    0s
H  126   124                    46502.376605 40674.0445  12.5%  20.0    0s
H  579   604                    44918.376605 40674.0445  9.45%  13.7    1s
H 1083   926                    44618.376605 40674.0445  8.84%  11.3    1s
H 1279  1068                    44568.376605 40674.0445  8.74%  11.2    1s
H 1359  1068                    44268.376605 40674.0445  8.12%  11.1    1s
H 1367  1068                    44264.376605 40674.0445  8.11%  11.1    1s
* 2267  1597              14    43980.376601 40674.0445  7.52%  10.1    1s
H 4642  2517                    43854.376605 40762.3539  7.05%   8.7    1s
*11496  3063              51    43747.575237 40941.2576  6.41%   9.0    4s
H11855  2822                    43669.164223 40941.2576  6.25%   9.0    4s
H11878  2668                    43649.198633 40941.2576  6.20%   9.0    4s
 14705  2430 infeasible   33      43649.1986 41231.3420  5.54%   9.0    5s
H14707  2380                    43570.787619 41231.3420  5.37%   9.0    5s
 36113    84     cutoff   33      43570.7876 42886.2560  1.57%  11.2   10s

Cutting planes:
  Learned: 4

Explored 37665 nodes (424388 simplex iterations) in 10.18 seconds (3.12 work units)
Thread count was 32 (of 128 available processors)

Solution count 10: 43570.8 43649.2 43669.2 ... 44618.4

Optimal solution found (tolerance 1.00e-10)
Warning: max constraint violation (4.2945e-03) exceeds tolerance
Warning: max general constraint violation (4.2945e-03) exceeds tolerance
  Piecewise linearization of function constraints often causes big violation.
  Try to adjust the settings of the related parameters, such as FuncPieces.
Best objective 4.357078761874e+04, best bound 4.357078761874e+04, gap 0.0000%

Gurobi 11.0.0 (linux64) logging started Thu Aug 15 12:53:59 2024

Set parameter LogFile to value "gurobi.log"
Set parameter InfUnbdInfo to value 1
Gurobi Optimizer version 11.0.0 build v11.0.0rc2 (linux64 - "Ubuntu 22.04.4 LTS")

CPU model: AMD EPYC 7V13 64-Core Processor, instruction set [SSE2|AVX|AVX2]
Thread count: 128 physical cores, 128 logical processors, using up to 32 threads

Optimize a model with 93 rows, 266 columns and 279 nonzeros
Model fingerprint: 0x2f215a75
Model has 167 quadratic constraints
Model has 2 general constraints
Variable types: 60 continuous, 206 integer (0 binary)
Coefficient statistics:
  Matrix range     [1e+00, 5e+05]
  QMatrix range    [1e+00, 2e+05]
  QLMatrix range   [1e+00, 6e+05]
  Objective range  [1e+00, 1e+00]
  Bounds range     [1e+00, 3e+10]
  RHS range        [1e+00, 2e+06]
  QRHS range       [1e+00, 2e+06]
Warning: Model contains large bounds
         Consider reformulating model or setting NumericFocus parameter
         to avoid numerical issues.
Using branch priorities (all 0).
Presolve added 20 rows and 54 columns
Presolve time: 0.00s
Presolved: 676 rows, 454 columns, 2943 nonzeros
Presolved model has 80 SOS constraint(s)
Presolved model has 106 bilinear constraint(s)
Warning: Model contains variables with very large bounds participating
         in product terms.
         Presolve was not able to compute smaller bounds for these variables.
         Consider bounding these variables or reformulating the model.


Solving non-convex MIQCP

Variable types: 146 continuous, 308 integer (98 binary)

Root relaxation: objective 4.032172e+04, 230 iterations, 0.00 seconds (0.00 work units)

    Nodes    |    Current Node    |     Objective Bounds      |     Work
 Expl Unexpl |  Obj  Depth IntInf | Incumbent    BestBd   Gap | It/Node Time

     0     0 40321.7172    0  112          - 40321.7172      -     -    0s
     0     0 40323.8545    0  161          - 40323.8545      -     -    0s
     0     0 40328.7122    0  156          - 40328.7122      -     -    0s
     0     0 40328.7122    0  164          - 40328.7122      -     -    0s
H    0     0                    295696.00000 40328.7122  86.4%     -    0s
     0     0 40342.3167    0  194 295696.000 40342.3167  86.4%     -    0s
     0     0 40342.3167    0  191 295696.000 40342.3167  86.4%     -    0s
H    0     0                    293393.79749 40346.2964  86.2%     -    0s
     0     0 40346.2964    0  191 293393.797 40346.2964  86.2%     -    0s
     0     0 40379.6027    0  253 293393.797 40379.6027  86.2%     -    0s
     0     0 40379.6027    0  265 293393.797 40379.6027  86.2%     -    0s
     0     0 40381.6420    0  245 293393.797 40381.6420  86.2%     -    0s
     0     0 40393.2482    0  209 293393.797 40393.2482  86.2%     -    0s
H    0     0                    289306.89874 40393.3728  86.0%     -    0s
     0     0 40395.4626    0  211 289306.899 40395.4626  86.0%     -    0s
     0     0 40410.6671    0  222 289306.899 40410.6671  86.0%     -    0s
     0     0 40411.3498    0  251 289306.899 40411.3498  86.0%     -    0s
     0     0 40438.2857    0  235 289306.899 40438.2857  86.0%     -    0s
H    0     0                    289294.89874 40438.2857  86.0%     -    0s
     0     0 40446.5491    0  223 289294.899 40446.5491  86.0%     -    0s
     0     0 40450.2252    0  227 289294.899 40450.2252  86.0%     -    0s
     0     0 40459.3498    0  245 289294.899 40459.3498  86.0%     -    0s
     0     0 40465.2428    0  231 289294.899 40465.2428  86.0%     -    0s
     0     0 40474.1689    0  216 289294.899 40474.1689  86.0%     -    0s
H    0     0                    194477.79749 40485.2783  79.2%     -    0s
     0     0 40485.2783    0  195 194477.797 40485.2783  79.2%     -    0s
     0     0 40492.2613    0  195 194477.797 40492.2613  79.2%     -    0s
     0     0 40495.3828    0  193 194477.797 40495.3828  79.2%     -    0s
H    0     0                    194327.79749 40507.3494  79.2%     -    0s
     0     0 40521.1163    0  145 194327.797 40521.1163  79.1%     -    0s
H    0     0                    193977.79749 40521.1163  79.1%     -    0s
     0     0 40535.6145    0  142 193977.797 40535.6145  79.1%     -    0s
     0     0 40544.1370    0  146 193977.797 40544.1370  79.1%     -    0s
H    0     0                    173128.46861 40544.1370  76.6%     -    0s
     0     0 40555.0569    0  146 173128.469 40555.0569  76.6%     -    0s
H    0     0                    162328.46861 40555.0569  75.0%     -    0s
     0     2 40555.0569    0  146 162328.469 40555.0569  75.0%     -    0s
H   32    64                    160728.46861 40555.0569  74.8%  39.3    0s
H   39    64                    85554.898745 40555.0569  52.6%  39.1    0s
H  127   158                    85204.898745 40555.0569  52.4%  23.9    0s
H  136   158                    83604.898745 40555.0569  51.5%  23.6    0s
H  169   190                    77354.898745 40555.0569  47.6%  22.7    0s
H  425   440                    75304.898745 40555.0569  46.1%  16.3    0s
H  461   440                    61677.018528 40555.0569  34.2%  15.5    0s
H  615   610                    59475.917273 40555.0569  31.8%  13.2    0s
H  881   893                    58775.917273 40555.0569  31.0%  11.7    0s
H  929   893                    58759.917273 40555.0569  31.0%  11.4    0s
H  959   893                    53558.302450 40555.0569  24.3%  11.1    0s
H 1019   893                    53208.302450 40555.0569  23.8%  10.6    0s
H 1223  1048                    51364.966782 40555.0569  21.0%   9.9    0s
* 2718  1924              71    51258.312181 40555.0569  20.9%   8.0    1s
* 2719  1924              70    51158.312181 40555.0569  20.7%   8.0    1s
* 3197  1924              30    51009.045905 40555.0569  20.5%   7.6    1s
H 3249  2154                    50226.045929 40555.0569  19.3%   7.6    1s
H 3487  2043                    48270.761482 40555.0569  16.0%   7.5    1s
H 3493  2043                    47092.875293 40555.0569  13.9%   7.5    1s
H 4520  1858                    46742.875293 40555.0569  13.2%   7.3    1s
H 4535  1769                    46392.875293 40559.3822  12.6%   7.3    2s
H 4535  1680                    46376.875293 40559.3822  12.5%   7.3    2s
H 4568  1646                    46271.875293 40732.5938  12.0%   8.3    2s
H 4569  1566                    46026.875293 40732.5938  11.5%   8.3    2s
H 5535  1735                    45777.705819 40858.0113  10.7%  10.8    3s
H 5587  1685                    45729.705819 40954.8826  10.4%  10.8    3s
* 7033  1514              42    45722.772586 41058.4952  10.2%  11.6    4s
H 7161  1406                    45592.780981 41058.4952  9.95%  11.7    4s
H 7177  1339                    45587.995000 41058.4952  9.94%  11.7    4s
* 7503  1288              34    45576.899552 41212.1675  9.58%  12.0    4s
H 8291  1384                    45544.899552 41212.1675  9.51%  11.9    4s
  8783  1498 42994.7901   51   69 45544.8996 41212.1675  9.51%  12.2    5s
H 9828  1685                    45439.899552 41333.2099  9.04%  12.2    5s
*23618  2954              40    45377.203007 42975.4456  5.29%  13.0    9s
*23622  2941              39    45327.203007 42975.4456  5.19%  13.0    9s
 25236  2881 45166.4555   35   68 45327.2030 43015.0900  5.10%  13.0   10s

Cutting planes:
  Learned: 3
  Gomory: 37
  Implied bound: 6
  Projected implied bound: 1
  MIR: 100
  StrongCG: 1
  Flow cover: 20
  Inf proof: 8
  RLT: 93
  Relax-and-lift: 8

Explored 42685 nodes (562269 simplex iterations) in 13.44 seconds (4.56 work units)
Thread count was 32 (of 128 available processors)

Solution count 10: 45327.2 45377.2 45439.9 ... 45777.7

Optimal solution found (tolerance 1.00e-10)
Warning: max constraint violation (2.9504e-03) exceeds tolerance
Warning: max general constraint violation (2.9504e-03) exceeds tolerance
  Piecewise linearization of function constraints often causes big violation.
  Try to adjust the settings of the related parameters, such as FuncPieces.
Best objective 4.532720300705e+04, best bound 4.532720300705e+04, gap 0.0000%

Gurobi 11.0.0 (linux64) logging started Thu Aug 15 15:29:33 2024

Set parameter LogFile to value "gurobi.log"
Set parameter InfUnbdInfo to value 1
Gurobi Optimizer version 11.0.0 build v11.0.0rc2 (linux64 - "Ubuntu 22.04.4 LTS")

CPU model: AMD EPYC 7V13 64-Core Processor, instruction set [SSE2|AVX|AVX2]
Thread count: 128 physical cores, 128 logical processors, using up to 32 threads

Optimize a model with 93 rows, 266 columns and 279 nonzeros
Model fingerprint: 0xf7271ce3
Model has 167 quadratic constraints
Model has 2 general constraints
Variable types: 60 continuous, 206 integer (0 binary)
Coefficient statistics:
  Matrix range     [1e+00, 5e+05]
  QMatrix range    [1e+00, 2e+05]
  QLMatrix range   [1e+00, 6e+05]
  Objective range  [1e+00, 1e+00]
  Bounds range     [1e+00, 3e+10]
  RHS range        [1e+00, 2e+06]
  QRHS range       [1e+00, 2e+06]
Warning: Model contains large bounds
         Consider reformulating model or setting NumericFocus parameter
         to avoid numerical issues.
Using branch priorities (all 0).
Presolve added 20 rows and 54 columns
Presolve time: 0.01s
Presolved: 676 rows, 454 columns, 2943 nonzeros
Presolved model has 80 SOS constraint(s)
Presolved model has 106 bilinear constraint(s)
Warning: Model contains variables with very large bounds participating
         in product terms.
         Presolve was not able to compute smaller bounds for these variables.
         Consider bounding these variables or reformulating the model.


Solving non-convex MIQCP

Variable types: 146 continuous, 308 integer (98 binary)

Root relaxation: objective 4.032172e+04, 235 iterations, 0.00 seconds (0.00 work units)

    Nodes    |    Current Node    |     Objective Bounds      |     Work
 Expl Unexpl |  Obj  Depth IntInf | Incumbent    BestBd   Gap | It/Node Time

     0     0 40321.7172    0  137          - 40321.7172      -     -    0s
     0     0 40325.8495    0  175          - 40325.8495      -     -    0s
     0     0 40328.7122    0  188          - 40328.7122      -     -    0s
     0     0 40328.7122    0  201          - 40328.7122      -     -    0s
H    0     0                    310031.55949 40328.7122  87.0%     -    0s
H    0     0                    309881.55949 40328.7122  87.0%     -    0s
     0     0 40340.5752    0  229 309881.559 40340.5752  87.0%     -    0s
     0     0 40340.5752    0  229 309881.559 40340.5752  87.0%     -    0s
     0     0 40341.4852    0  229 309881.559 40341.4852  87.0%     -    0s
H    0     0                    169390.34812 40341.4852  76.2%     -    0s
     0     0 40381.8499    0  256 169390.348 40381.8499  76.2%     -    0s
     0     0 40383.6397    0  269 169390.348 40383.6397  76.2%     -    0s
     0     0 40383.6397    0  272 169390.348 40383.6397  76.2%     -    0s
     0     0 40397.5976    0  272 169390.348 40397.5976  76.2%     -    0s
     0     0 40397.5976    0  272 169390.348 40397.5976  76.2%     -    0s
     0     0 40402.4112    0  276 169390.348 40402.4112  76.1%     -    0s
     0     0 40410.4168    0  224 169390.348 40410.4168  76.1%     -    0s
     0     0 40413.4631    0  253 169390.348 40413.4631  76.1%     -    0s
     0     0 40417.4488    0  247 169390.348 40417.4488  76.1%     -    0s
     0     0 40438.3262    0  262 169390.348 40438.3262  76.1%     -    0s
H    0     0                    169186.34812 40438.3262  76.1%     -    0s
     0     0 40447.4930    0  276 169186.348 40447.4930  76.1%     -    0s
     0     0 40450.3654    0  250 169186.348 40450.3654  76.1%     -    0s
     0     0 40459.4170    0  269 169186.348 40459.4170  76.1%     -    0s
     0     0 40459.5852    0  269 169186.348 40459.5852  76.1%     -    0s
     0     0 40471.4602    0  268 169186.348 40471.4602  76.1%     -    0s
H    0     0                    168986.34812 40471.4602  76.1%     -    0s
H    0     0                    168524.34812 40471.4602  76.0%     -    0s
     0     0 40491.0416    0  269 168524.348 40491.0416  76.0%     -    0s
     0     0 40491.0416    0  268 168524.348 40491.0416  76.0%     -    0s
     0     0 40495.2995    0  198 168524.348 40495.2995  76.0%     -    0s
     0     2 40495.2995    0  198 168524.348 40495.2995  76.0%     -    0s
H   39    58                    168440.34812 40495.2995  76.0%  34.5    0s
H   53    58                    168324.34812 40495.2995  75.9%  30.5    0s
H  108   118                    85364.731516 40495.2995  52.6%  27.2    0s
H  135   144                    85014.731516 40495.2995  52.4%  28.5    0s
H 1287  1206                    65414.731516 40495.2995  38.1%  10.3    0s
H 1343  1206                    65402.731516 40495.2995  38.1%  10.0    0s
H 1415  1206                    56064.731516 40495.2995  27.8%   9.8    0s
* 2512  1841              61    51455.347587 40520.0866  21.3%   8.4    0s
* 2627  1841              63    51255.347587 40520.0866  20.9%   8.3    0s
* 3376  2083              50    51077.433662 40537.1061  20.6%   7.9    1s
* 3377  2070              50    50877.433662 40537.1061  20.3%   7.9    1s
* 3378  2066              49    50777.433662 40537.1061  20.2%   7.9    1s
* 3379  2064              48    50727.433662 40537.1061  20.1%   7.9    1s
H 4593  2354                    50121.716831 40632.9884  18.9%   7.3    1s
H 4595  2227                    49921.716831 40632.9884  18.6%   7.3    1s
H 4601  2120                    49721.716831 40632.9884  18.3%   7.3    1s
H 4602  2013                    49621.716831 40632.9884  18.1%   7.3    1s
H 4608  1916                    49271.716831 40632.9884  17.5%   7.3    1s
H 4608  1820                    49121.716831 40632.9884  17.3%   7.3    1s
H 4761  1810                    49071.716831 40632.9884  17.2%   9.0    2s
H 4765  1722                    48971.716831 40632.9884  17.0%   9.0    2s
H 5004  1695                    48921.716831 40632.9884  16.9%  10.2    2s
* 6096  1598              50    48916.899552 40667.0821  16.9%  11.4    3s
* 6099  1523              48    48616.899552 40667.0821  16.4%  11.4    3s
H 6943  1543                    48592.899552 40725.9049  16.2%  11.7    3s
* 9193  1646              42    48466.851034 41276.6284  14.8%  12.1    4s
H 9829  1864                    48376.875293 41435.5022  14.3%  12.2    4s
H10062  1864                    47851.875293 41435.5022  13.4%  12.2    4s
 11533  2076     cutoff   33      47851.8753 41725.9733  12.8%  12.5    5s
 23133  4108     cutoff   38      47851.8753 42988.2354  10.2%  13.5   10s
 43230  5346 46125.5593   37   93 47851.8753 44213.2881  7.60%  13.1   15s
 64122  3363     cutoff   41      47851.8753 45347.8752  5.23%  13.0   20s

Cutting planes:
  Learned: 7
  Gomory: 25
  Implied bound: 15
  Projected implied bound: 2
  MIR: 97
  StrongCG: 6
  Flow cover: 30
  Inf proof: 10
  Zero half: 3
  RLT: 108
  Relax-and-lift: 4

Explored 76985 nodes (1000616 simplex iterations) in 22.03 seconds (7.24 work units)
Thread count was 32 (of 128 available processors)

Solution count 10: 47851.9 48376.9 48466.9 ... 49121.7

Optimal solution found (tolerance 1.00e-10)
Warning: max constraint violation (4.1215e-03) exceeds tolerance
Warning: max general constraint violation (4.1215e-03) exceeds tolerance
  Piecewise linearization of function constraints often causes big violation.
  Try to adjust the settings of the related parameters, such as FuncPieces.
Best objective 4.785187529286e+04, best bound 4.785187529286e+04, gap 0.0000%

Gurobi 11.0.0 (linux64) logging started Thu Aug 15 15:59:44 2024

Set parameter LogFile to value "gurobi.log"
Set parameter InfUnbdInfo to value 1
Gurobi Optimizer version 11.0.0 build v11.0.0rc2 (linux64 - "Ubuntu 22.04.4 LTS")

CPU model: AMD EPYC 7V13 64-Core Processor, instruction set [SSE2|AVX|AVX2]
Thread count: 128 physical cores, 128 logical processors, using up to 32 threads

Optimize a model with 93 rows, 266 columns and 279 nonzeros
Model fingerprint: 0x71350a3d
Model has 167 quadratic constraints
Model has 2 general constraints
Variable types: 60 continuous, 206 integer (0 binary)
Coefficient statistics:
  Matrix range     [1e+00, 5e+05]
  QMatrix range    [1e+00, 2e+05]
  QLMatrix range   [1e+00, 6e+05]
  Objective range  [1e+00, 1e+00]
  Bounds range     [1e+00, 3e+10]
  RHS range        [1e+00, 2e+06]
  QRHS range       [1e+00, 2e+06]
Warning: Model contains large bounds
         Consider reformulating model or setting NumericFocus parameter
         to avoid numerical issues.
Using branch priorities (all 0).
Presolve added 20 rows and 54 columns
Presolve time: 0.00s
Presolved: 676 rows, 454 columns, 2943 nonzeros
Presolved model has 80 SOS constraint(s)
Presolved model has 106 bilinear constraint(s)
Warning: Model contains variables with very large bounds participating
         in product terms.
         Presolve was not able to compute smaller bounds for these variables.
         Consider bounding these variables or reformulating the model.


Solving non-convex MIQCP

Variable types: 146 continuous, 308 integer (98 binary)

Root relaxation: objective 4.032172e+04, 236 iterations, 0.00 seconds (0.00 work units)

    Nodes    |    Current Node    |     Objective Bounds      |     Work
 Expl Unexpl |  Obj  Depth IntInf | Incumbent    BestBd   Gap | It/Node Time

     0     0 40321.7172    0  129          - 40321.7172      -     -    0s
     0     0 40348.9645    0  178          - 40348.9645      -     -    0s
     0     0 40351.8272    0  183          - 40351.8272      -     -    0s
     0     0 40351.8272    0  202          - 40351.8272      -     -    0s
H    0     0                    527573.79749 40351.8272  92.4%     -    0s
     0     0 40388.6992    0  242 527573.797 40388.6992  92.3%     -    0s
     0     0 40388.6992    0  242 527573.797 40388.6992  92.3%     -    0s
     0     0 40388.9646    0  238 527573.797 40388.9646  92.3%     -    0s
     0     0 40388.9646    0  241 527573.797 40388.9646  92.3%     -    0s
     0     0 40428.0149    0  238 527573.797 40428.0149  92.3%     -    0s
     0     0 40429.8047    0  226 527573.797 40429.8047  92.3%     -    0s
     0     0 40433.5289    0  138 527573.797 40433.5289  92.3%     -    0s
     0     0 40442.6541    0  227 527573.797 40442.6541  92.3%     -    0s
H    0     0                    383656.00000 40442.6541  89.5%     -    0s
     0     0 40491.9277    0  257 383656.000 40491.9277  89.4%     -    0s
H    0     0                    383006.00000 40491.9277  89.4%     -    0s
     0     0 40491.9277    0  253 383006.000 40491.9277  89.4%     -    0s
     0     0 40491.9277    0  257 383006.000 40491.9277  89.4%     -    0s
H    0     0                    146144.55070 40491.9277  72.3%     -    0s
     0     0 40491.9277    0  246 146144.551 40491.9277  72.3%     -    0s
     0     0 40491.9277    0  242 146144.551 40491.9277  72.3%     -    0s
     0     0 40491.9277    0  242 146144.551 40491.9277  72.3%     -    0s
     0     0 40491.9277    0  252 146144.551 40491.9277  72.3%     -    0s
     0     0 40491.9277    0  235 146144.551 40491.9277  72.3%     -    0s
H    0     0                    111864.27535 40491.9277  63.8%     -    0s
     0     2 40491.9277    0  235 111864.275 40491.9277  63.8%     -    0s
H   32    64                    111564.27535 40589.3603  63.6%  48.6    0s
H   37    64                    111114.27535 40589.3603  63.5%  50.0    0s
H  110   122                    87802.000000 40623.0791  53.7%  37.8    0s
H  160   172                    82982.898745 40623.0791  51.0%  29.7    0s
H  167   172                    80303.514816 40623.0791  49.4%  29.7    0s
H  168   172                    76032.944937 40623.0791  46.6%  29.5    0s
H  427   427                    76012.889874 40623.0791  46.6%  16.3    0s
H  610   619                    75712.889874 40623.0791  46.3%  13.9    0s
H  654   619                    75684.889874 40623.0791  46.3%  13.4    0s
H 1096  1071                    75554.944937 40659.0142  46.2%  10.4    0s
H 1271  1071                    75465.000000 40659.0142  46.1%   9.6    0s
H 1534  1480                    75115.000000 40659.0142  45.9%   9.1    1s
* 1693  1480              30    70928.220280 40659.0142  42.7%   8.8    1s
* 2033  1736              30    70878.220280 40659.0142  42.6%   8.7    1s
* 2481  2049              82    61029.864336 40659.0142  33.4%   8.1    1s
H 2809  2076                    60729.045929 40659.0142  33.0%   7.8    1s
H 3186  2369                    59522.807411 40659.0142  31.7%   7.8    1s
H 3273  2331                    58773.761482 40659.0142  30.8%   7.8    1s
H 3370  2305                    58173.761482 40659.0142  30.1%   7.8    1s
H 5020  2696                    57773.761482 40760.2401  29.4%   7.5    2s
H 5025  2564                    57457.761482 40760.2401  29.1%   7.4    2s
H 5026  2436                    57357.761482 40760.2401  28.9%   7.4    2s
H 5027  2314                    57141.761482 40760.2401  28.7%   7.4    2s
H 5035  2204                    57041.761482 40760.2401  28.5%   7.4    2s
H 5068  2145                    56891.761482 40760.2401  28.4%   8.1    3s
H 5072  2038                    56741.761482 40760.2401  28.2%   8.1    3s
H 5149  1968                    56591.761482 40760.2401  28.0%   9.0    3s
H 5368  1966                    56589.761482 40760.2401  28.0%   9.9    3s
H 6151  2023                    54893.416607 40760.2401  25.7%  11.1    4s
  7936  2242 infeasible   35      54893.4166 40820.5214  25.6%  12.8    5s
H 8528  1989                    54034.875451 40883.0112  24.3%  12.7    5s
* 8531  1907              37    53984.875451 40883.0112  24.3%  12.7    5s
H 9317  1790                    53564.875451 41122.5539  23.2%  12.8    5s
H14889  3569                    53354.875451 42586.3134  20.2%  13.5    9s
 16227  3791 47474.1698   26   82 53354.8755 42943.0178  19.5%  14.0   10s
 29760  6490 49866.2825   28  102 53354.8755 44491.3390  16.6%  14.6   15s
 48314  9713 47552.2481   31   79 53354.8755 45612.8564  14.5%  13.7   20s
 68927 11304 infeasible   33      53354.8755 46686.0965  12.5%  13.6   25s
 91893 11514     cutoff   26      53354.8755 47639.5910  10.7%  13.5   30s
 112774 10150 52413.5982   32   78 53354.8755 48616.2884  8.88%  13.5   35s
 135482  6401 infeasible   24      53354.8755 49832.4417  6.60%  13.5   40s

Cutting planes:
  Learned: 5
  Gomory: 41
  Implied bound: 18
  MIR: 124
  StrongCG: 8
  Flow cover: 22
  Inf proof: 10
  RLT: 120
  Relax-and-lift: 7

Explored 153655 nodes (2079077 simplex iterations) in 43.15 seconds (15.03 work units)
Thread count was 32 (of 128 available processors)

Solution count 10: 53354.9 53564.9 53984.9 ... 57041.8

Optimal solution found (tolerance 1.00e-10)
Warning: max constraint violation (2.6814e-03) exceeds tolerance
Warning: max general constraint violation (2.6814e-03) exceeds tolerance
  Piecewise linearization of function constraints often causes big violation.
  Try to adjust the settings of the related parameters, such as FuncPieces.
Best objective 5.335487545068e+04, best bound 5.335487545068e+04, gap 0.0000%
